(declare-sort FuelId 0)
(declare-const c1 FuelId)
(declare-const c2 FuelId)
(declare-const c3 FuelId)
(declare-const c4 FuelId)
(declare-const c5 FuelId)
(declare-const c6 FuelId)
(declare-const c7 FuelId)
(declare-const c8 FuelId)
(declare-const c9 FuelId)
(declare-const c10 FuelId)
(declare-const c11 FuelId)
(declare-const c12 FuelId)
(declare-const c13 FuelId)
(declare-const c14 FuelId)
(declare-const c15 FuelId)
(declare-const c16 FuelId)
(declare-const c17 FuelId)
(declare-const c18 FuelId)
(declare-const c19 FuelId)
(declare-const c20 FuelId)
(declare-const c21 FuelId)
(declare-const c22 FuelId)
(declare-const c23 FuelId)
(declare-const c24 FuelId)
(declare-const c25 FuelId)
(declare-const c26 FuelId)
(declare-const c27 FuelId)
(declare-const c28 FuelId)
(declare-const c29 FuelId)
(declare-const c30 FuelId)
(declare-const c31 FuelId)
(declare-const c32 FuelId)
(declare-const c33 FuelId)
(declare-const c34 FuelId)
(declare-const c35 FuelId)
(declare-const c36 FuelId)
(declare-const c37 FuelId)
(declare-const c38 FuelId)
(declare-const c39 FuelId)
(declare-const c40 FuelId)
(declare-const c41 FuelId)
(declare-const c42 FuelId)
(declare-const c43 FuelId)
(declare-const c44 FuelId)
(declare-const c45 FuelId)
(declare-const c46 FuelId)
(declare-const c47 FuelId)
(declare-const c48 FuelId)
(declare-const c49 FuelId)
(declare-const c50 FuelId)
(declare-const c51 FuelId)
(declare-const c52 FuelId)
(declare-const c53 FuelId)
(assert (distinct c1 c2 c3 c4 c5 c6 c7 c8 c9 c10 c11 c12 c13 c14 c15 c16 c17 c18 c19 c20 c21 c22 c23 c24 c25 c26 c27 c28 c29 c30 c31 c32 c33 c34 c35 c36 c37 c38 c39 c40 c41 c42 c43 c44 c45 c46 c47 c48 c49 c50 c51 c52 c53))
(check-sat)
